S = 9;
start = [|0,43,0,0,0,0,0,0,0,65,49,0,0,0,37,0,0,0,0,0,62,51,17,0,54,0,0,0,0,5,11,0,0,0,34,63,0,23,0,0,0,0,0,0,0,0,0,28,0,50,0,0,0,60,0,0,0,21,38,0,0,55,0,2,30,0,0,0,26,0,0,0,0,0,0,0,0,42,22,0,0|
48,0,0,0,72,65,51,0,0,0,0,0,0,0,0,0,33,0,0,75,78,0,0,0,39,0,0,0,0,0,0,19,0,0,0,0,30,0,0,0,0,13,0,0,53,0,56,0,54,0,0,5,0,0,0,37,47,0,0,25,0,0,63,46,15,0,31,38,62,0,0,0,0,0,0,0,17,0,44,26,0|
0,20,0,38,0,0,54,0,0,17,34,1,0,60,0,0,0,0,63,0,79,0,0,0,46,0,0,78,0,71,0,0,23,0,0,0,81,0,0,65,0,0,0,59,0,0,0,62,0,12,55,0,0,0,40,33,72,0,49,0,0,0,80,56,0,0,67,64,0,0,32,0,0,0,0,6,50,0,0,0,0|
0,0,0,61,29,12,28,15,37,0,25,73,0,58,0,0,0,0,65,32,24,0,0,0,0,0,0,2,81,43,0,0,13,0,0,8,0,0,75,71,0,45,64,0,0,68,0,70,0,67,0,63,0,0,0,0,0,79,0,0,77,0,51,27,57,0,0,0,0,0,0,6,0,36,0,76,3,0,66,21,0|
0,23,0,0,0,0,2,0,0,0,0,0,45,0,28,0,46,43,0,0,0,0,0,0,31,0,42,0,0,44,0,0,0,0,0,0,0,0,0,0,0,60,58,0,26,0,0,0,0,74,39,0,0,0,0,0,19,0,0,30,0,0,0,0,0,49,0,0,41,76,69,0,0,0,0,0,0,0,1,65,0|
17,0,0,0,0,0,3,80,46,77,0,41,0,0,6,0,0,0,0,0,0,0,0,0,1,57,66,0,39,0,58,0,0,76,0,0,0,0,0,0,0,0,54,35,0,59,0,0,14,0,0,21,79,0,0,0,0,0,18,70,0,32,0,0,10,28,0,0,0,55,0,0,40,47,0,0,62,0,27,0,0|
0,0,0,0,0,10,0,0,57,0,0,5,0,59,62,0,0,44,0,0,0,33,0,0,43,0,69,42,0,0,0,0,54,22,0,0,24,66,0,41,0,0,0,0,0,0,76,2,0,0,0,0,0,0,0,0,48,0,0,65,0,0,0,0,0,0,0,0,0,35,0,0,0,0,0,0,30,0,0,0,0|
0,0,49,6,81,35,0,21,52,0,0,0,79,0,75,0,20,0,36,37,0,0,0,0,11,0,0,32,29,68,0,0,0,0,0,60,17,0,0,43,38,46,0,0,0,10,0,0,0,0,0,0,0,0,50,0,0,0,0,26,0,0,0,0,40,0,0,33,12,0,77,0,0,78,0,67,8,0,0,25,0|
0,0,0,16,73,0,74,0,59,0,0,0,80,69,0,0,4,0,77,0,0,0,70,71,0,0,49,0,51,27,0,0,17,0,30,14,0,0,0,0,0,0,0,0,0,0,0,0,0,0,0,0,65,0,0,81,6,0,0,0,57,41,0,0,0,0,0,72,0,0,37,0,0,0,0,0,0,58,29,79,0|
0,0,0,0,0,0,0,0,4,48,0,0,0,0,0,0,0,0,0,0,40,72,0,0,0,0,0,0,0,0,0,0,0,0,29,0,0,0,0,0,0,0,0,77,0,0,0,0,0,0,0,0,0,0,0,0,0,8,68,0,74,0,49,0,13,46,0,0,0,0,17,0,0,1,0,0,0,0,0,0,70|
57,0,0,31,0,26,0,40,0,52,29,44,38,0,0,62,0,0,16,0,14,0,7,30,0,0,33,0,8,0,0,74,0,0,60,0,0,0,0,15,0,0,72,0,0,0,70,6,0,68,0,0,0,0,0,56,0,0,11,0,0,0,0,0,0,0,0,65,0,0,75,71,25,0,0,0,19,80,0,0,0|
0,68,71,22,0,0,0,0,0,0,0,0,0,0,0,45,0,0,0,44,56,0,28,0,0,0,0,0,0,0,0,0,0,43,0,24,0,0,0,2,1,0,0,0,0,0,0,53,36,23,73,0,0,0,3,0,40,0,0,0,32,0,0,0,0,0,0,29,0,0,0,72,30,65,0,0,0,0,0,0,0|
56,61,7,0,23,76,0,0,0,57,0,0,0,0,80,0,8,0,0,0,0,0,0,0,0,0,35,64,0,0,0,0,0,0,15,0,0,0,0,0,0,0,24,0,78,11,75,77,0,0,0,0,60,0,36,0,0,1,0,0,0,0,0,0,0,0,0,53,74,0,0,59,0,0,0,10,0,0,62,0,39|
44,0,25,0,0,0,0,70,0,55,72,66,0,0,0,59,0,0,0,0,47,0,0,0,0,0,0,1,52,0,0,57,0,0,80,0,0,0,0,8,0,53,67,0,3,0,0,0,74,7,0,35,0,0,0,26,0,0,78,0,0,0,0,60,18,0,9,0,0,40,0,41,11,0,0,0,0,48,24,0,0|
0,0,60,1,0,43,0,41,0,0,0,0,0,3,67,0,26,0,62,73,0,24,0,17,0,0,0,39,0,56,0,0,81,0,0,0,0,31,29,30,45,0,0,0,0,5,0,0,0,0,0,42,0,0,0,0,28,7,0,0,0,0,0,0,0,0,66,12,0,16,76,0,72,32,0,0,37,36,0,0,0|
0,15,78,48,0,0,14,0,0,1,2,0,0,0,56,11,0,0,0,21,0,0,10,0,26,32,0,45,0,0,0,0,0,0,0,0,0,0,0,57,0,0,39,0,59,0,0,0,0,0,33,13,0,38,0,22,27,58,4,0,0,0,0,0,0,0,54,8,0,0,0,0,75,0,0,66,0,73,12,0,0|
20,0,0,0,35,0,0,0,0,0,81,0,0,0,0,0,24,0,0,0,55,0,0,0,0,0,0,72,28,0,0,32,0,0,0,0,0,75,0,0,0,38,0,0,44,0,0,26,80,0,0,0,0,39,51,0,53,0,0,31,0,0,0,0,0,62,0,0,27,0,0,36,0,0,0,0,21,0,0,0,78|
0,0,0,0,0,0,5,0,0,14,0,0,0,0,0,0,0,22,0,0,74,0,0,0,0,0,0,0,0,40,0,10,0,0,75,0,6,13,0,0,71,0,34,0,0,0,0,56,0,79,32,0,37,0,0,60,0,0,0,59,0,0,70,48,0,0,0,0,0,0,0,0,0,8,0,0,0,0,0,0,64|
0,0,3,0,21,38,0,0,0,0,0,0,36,80,57,0,5,53,0,11,0,0,0,0,76,10,0,66,0,0,49,0,78,0,67,0,0,12,0,0,0,0,23,0,22,25,79,34,2,6,54,28,0,0,0,0,0,48,0,0,72,0,47,0,64,0,0,0,0,0,60,0,81,29,0,27,0,0,0,0,0|
0,0,0,0,0,62,0,0,0,0,0,0,0,21,0,0,0,0,59,0,0,0,0,57,77,0,0,0,40,0,0,0,52,0,12,0,0,0,0,0,0,0,0,54,0,0,0,0,68,0,75,0,0,0,42,0,0,0,0,0,0,81,0,71,0,0,0,0,0,20,0,0,0,49,8,0,0,0,67,0,0|
51,0,0,0,0,0,0,0,0,67,0,29,0,0,0,0,42,0,0,0,0,14,66,0,0,0,68,0,0,57,0,0,0,70,0,0,0,45,21,0,0,0,0,69,0,0,7,0,43,0,74,0,0,0,54,0,0,0,0,0,0,0,0,0,0,52,6,0,11,0,0,0,0,0,0,0,0,0,0,0,77|
0,0,0,7,0,0,25,36,63,0,0,0,28,56,0,6,0,0,78,0,0,0,0,40,0,31,0,0,0,0,0,0,30,0,0,0,75,0,0,27,0,0,0,0,0,0,0,69,0,0,0,53,0,26,67,46,32,16,0,0,0,45,33,18,0,0,0,0,0,0,0,0,0,0,11,65,0,0,0,0,12|
67,39,0,0,0,0,0,0,60,0,51,0,0,30,0,0,23,0,48,0,0,0,0,0,0,0,0,0,0,0,0,11,0,32,0,47,0,0,0,0,0,0,66,29,25,4,0,0,0,0,63,33,0,0,0,0,75,0,0,49,7,0,74,37,0,0,0,0,0,15,0,0,1,0,0,9,0,0,0,0,6|
0,0,0,0,0,61,0,0,0,0,0,0,0,46,0,32,0,59,0,0,0,16,0,6,28,0,4,0,0,0,0,0,0,3,0,0,0,0,0,79,0,0,0,0,0,0,0,21,0,0,0,0,1,0,0,62,0,0,0,0,0,14,0,0,0,0,0,0,42,0,8,0,18,0,0,0,80,0,0,0,41|
0,27,0,23,0,0,0,0,16,0,61,0,8,7,0,0,0,0,0,0,0,0,0,0,0,0,0,13,0,0,0,0,0,0,0,0,57,0,0,0,0,0,0,0,0,0,0,0,0,19,30,0,51,0,0,4,20,0,34,0,0,0,71,45,0,9,32,0,0,0,2,46,0,0,0,59,0,0,0,54,0|
15,0,41,0,0,11,0,0,0,75,0,79,0,0,0,0,54,4,7,0,0,0,0,0,45,63,5,0,0,20,0,2,0,0,0,0,48,0,0,0,0,0,0,76,0,70,0,0,0,40,77,0,0,14,38,0,1,39,0,29,0,59,69,0,62,0,0,74,0,0,0,0,0,0,0,0,0,0,0,0,0|
0,0,2,0,54,0,80,0,0,9,0,0,0,20,0,0,0,70,0,0,0,0,0,73,60,0,0,0,0,0,63,0,0,48,81,0,31,0,0,0,0,0,14,34,0,62,0,0,44,0,0,0,0,0,0,10,0,0,0,8,51,0,0,0,29,0,0,4,61,0,0,0,0,0,0,53,0,0,3,0,0|
0,0,0,73,0,0,0,8,0,0,66,15,0,0,0,68,0,0,0,70,10,3,0,0,17,0,0,0,0,0,0,71,48,40,0,0,0,61,0,0,0,0,0,0,0,0,0,14,0,26,0,0,58,0,33,0,0,0,1,0,0,0,0,0,0,0,0,0,0,41,0,0,42,0,0,0,0,51,0,0,27|
24,30,0,65,0,0,71,0,62,0,0,0,0,0,33,35,0,0,0,29,0,0,0,0,0,0,0,0,68,0,0,0,0,18,0,74,40,0,0,44,0,52,0,0,0,27,0,0,56,0,0,70,0,0,0,0,0,0,0,48,38,37,0,0,0,0,0,0,0,0,0,25,0,0,0,0,0,66,73,0,0|
27,19,0,0,0,21,0,55,0,0,32,0,0,52,0,23,0,77,0,0,54,0,0,0,0,0,0,0,0,0,9,0,0,0,5,0,0,0,0,0,0,0,0,0,0,0,0,0,0,22,0,0,41,0,0,0,14,0,0,0,28,2,36,0,0,0,58,0,75,0,51,0,31,0,50,0,34,0,38,0,63|
54,0,67,9,17,0,56,0,0,0,0,0,78,0,0,0,0,0,0,55,0,27,0,75,33,66,0,22,0,16,0,0,0,0,0,0,0,0,0,31,0,18,20,0,0,0,57,39,0,0,65,43,0,0,21,63,0,0,0,51,0,0,0,0,0,74,0,0,0,0,0,0,0,0,46,0,0,0,0,80,0|
0,58,0,36,53,0,0,0,0,0,0,0,0,0,0,0,0,0,41,0,25,0,35,39,68,0,0,0,0,0,0,0,0,77,0,80,0,0,0,0,73,0,0,0,0,0,0,0,78,10,3,0,0,11,0,15,0,4,0,0,17,0,0,0,0,63,0,0,0,0,21,0,24,67,40,0,0,7,19,33,13|
10,0,52,0,32,64,0,0,0,59,0,0,0,43,55,0,21,0,56,0,0,0,14,0,0,0,0,0,0,0,81,35,0,0,0,0,0,76,0,0,65,24,0,0,0,0,0,0,0,0,0,0,9,0,0,30,7,0,0,62,8,42,66,0,0,0,0,0,80,19,0,0,0,16,70,0,0,0,0,0,75|
12,22,23,0,0,15,0,45,14,3,0,9,0,1,0,80,0,0,0,0,0,0,0,0,0,0,0,0,0,0,0,0,0,0,0,0,42,0,0,0,0,0,0,0,0,75,18,66,0,0,25,0,68,0,0,13,0,0,0,0,0,0,0,0,77,0,0,0,0,0,0,0,0,55,0,0,0,0,0,0,60|
0,0,0,4,51,0,26,0,0,0,0,0,0,62,0,0,0,46,0,0,0,36,44,74,0,0,0,14,0,0,0,7,0,42,0,0,0,0,0,55,32,0,0,0,50,0,0,0,0,60,45,0,35,0,0,0,0,80,16,0,0,0,0,0,0,0,0,0,10,0,0,9,0,0,0,0,15,0,0,17,0|
0,0,0,0,0,0,0,3,0,22,0,40,0,25,0,0,0,0,0,38,69,0,0,0,0,80,0,24,0,30,0,33,0,13,53,0,0,2,0,78,0,0,0,6,0,67,0,0,0,20,4,0,17,0,0,0,0,0,0,0,0,54,0,0,73,16,43,0,0,0,0,0,68,18,12,0,0,0,0,59,65|
0,33,70,56,0,0,1,23,0,0,0,0,0,0,24,0,12,60,0,26,0,0,81,8,0,0,0,0,17,0,0,0,0,0,0,0,0,0,0,0,0,0,0,0,0,32,0,0,35,57,0,73,0,0,4,0,0,0,0,0,0,0,18,10,28,0,0,0,0,0,0,0,77,0,0,0,0,0,63,0,0|
0,0,72,0,0,0,39,0,0,0,0,8,0,79,0,0,0,0,45,0,0,0,0,37,22,0,0,0,0,0,68,0,20,0,0,61,64,0,0,0,0,0,0,0,0,69,54,42,63,49,0,0,0,0,0,35,0,0,0,0,0,29,24,34,0,0,0,0,52,0,48,0,19,57,0,0,5,0,0,1,59|
0,0,0,0,0,0,50,0,0,0,0,0,0,16,25,0,0,0,0,0,3,0,0,72,0,0,34,73,26,0,36,51,2,11,0,0,0,0,0,0,42,0,5,0,0,56,0,0,66,0,0,40,30,0,19,0,59,0,0,0,0,0,0,0,60,7,0,0,45,0,0,63,0,0,0,0,0,0,47,15,18|
69,65,59,45,14,0,68,0,31,0,55,4,0,49,34,0,0,54,0,0,0,0,0,0,0,0,0,60,50,0,32,12,0,0,0,0,13,0,71,77,0,0,0,0,0,0,17,23,0,0,48,0,0,81,0,28,0,56,15,0,0,0,5,0,0,0,0,0,36,0,42,0,10,0,72,0,22,0,64,29,2|
81,0,0,0,42,0,0,51,0,0,0,68,0,0,26,29,0,36,0,0,0,0,32,0,23,0,60,0,0,18,0,39,0,0,0,0,0,25,69,0,0,0,0,73,63,0,65,58,5,0,0,0,0,79,0,0,0,0,0,0,0,0,21,0,0,0,0,0,0,0,57,0,0,0,0,0,0,0,31,0,0|
60,0,0,29,0,0,0,79,0,0,69,0,0,0,59,0,63,0,0,18,41,0,0,28,38,0,50,0,0,0,30,0,0,81,0,57,0,0,0,0,26,0,0,0,6,0,0,0,0,14,0,0,62,7,0,0,0,0,0,0,0,0,0,0,0,0,0,16,49,0,73,67,34,0,54,3,20,0,0,0,58|
71,0,48,0,0,0,0,0,75,0,0,0,17,0,0,0,1,0,0,0,0,66,0,0,0,36,0,15,0,0,0,72,0,0,0,0,0,0,0,0,0,0,55,0,14,0,11,0,22,38,2,0,0,0,68,0,12,0,42,76,39,0,0,8,69,50,0,0,0,0,0,0,0,26,0,45,0,0,0,0,0|
0,0,46,0,4,57,0,0,25,0,9,0,76,0,0,37,44,11,0,0,0,0,0,0,0,0,0,0,64,0,13,0,0,0,0,0,0,27,0,0,0,0,45,32,34,0,60,10,0,0,0,0,0,0,0,0,0,75,0,0,0,79,0,80,0,0,0,59,0,0,0,0,0,0,0,0,0,28,0,48,30|
0,0,0,62,5,0,0,64,0,0,0,22,0,0,0,0,0,0,0,0,0,0,0,0,0,0,0,0,0,0,0,37,0,1,24,0,80,0,0,18,31,0,29,65,0,0,0,0,0,0,0,9,0,0,0,0,0,0,60,63,44,0,54,0,21,0,0,0,0,0,0,0,0,0,0,0,0,0,0,43,0|
0,49,0,8,0,0,63,68,0,0,38,24,0,0,0,79,0,0,0,67,37,7,75,0,61,0,27,0,9,13,0,0,0,57,51,18,0,77,0,54,0,0,0,70,76,0,0,0,0,15,0,0,0,0,0,0,0,0,0,0,1,43,0,0,16,0,0,0,0,12,0,0,0,48,0,50,0,64,78,31,47|
0,3,0,0,0,0,4,0,0,0,0,0,0,0,0,0,45,0,44,0,0,0,0,0,74,0,0,70,0,0,42,0,0,0,0,40,1,0,0,0,37,0,9,25,0,63,0,55,0,0,0,18,5,2,0,7,0,73,58,0,0,0,75,0,23,0,0,76,0,0,0,27,0,6,59,0,39,0,0,0,57|
0,0,74,0,0,41,0,0,0,7,21,31,0,0,47,0,68,64,0,0,51,0,0,59,0,33,0,0,24,35,0,0,76,0,0,0,0,0,10,0,0,0,0,15,0,0,0,3,0,0,0,56,0,70,0,0,0,0,50,0,49,0,0,42,0,48,0,0,0,22,0,77,0,0,0,0,1,4,0,62,0|
0,5,0,0,0,32,0,54,64,0,26,0,0,0,16,0,0,0,0,0,0,0,0,15,0,0,58,41,0,36,6,0,0,0,0,0,0,8,0,0,0,33,0,3,0,0,0,57,0,0,0,0,0,19,0,0,30,47,59,0,0,4,0,0,0,0,0,0,25,0,39,0,0,0,0,22,0,0,0,0,73|
26,0,9,0,0,0,0,0,0,2,56,70,0,0,0,0,0,37,0,0,0,31,0,0,66,0,0,0,10,15,0,75,0,0,0,39,0,0,0,0,0,62,0,0,29,0,53,0,0,0,0,0,23,0,77,54,0,0,0,0,0,0,0,7,0,19,0,3,81,52,49,0,0,0,0,0,0,0,0,0,0|
0,16,0,40,56,0,0,0,80,0,0,0,0,0,23,0,0,0,0,76,0,0,0,0,0,0,53,4,0,0,0,77,0,0,0,54,69,0,50,0,0,0,27,0,52,0,74,0,48,51,62,0,0,0,72,0,0,0,0,0,0,0,0,78,0,0,0,0,0,0,0,0,0,0,81,37,26,0,0,2,0|
0,0,0,0,0,0,66,0,70,0,0,60,0,0,0,0,0,0,0,0,0,0,0,0,0,6,0,0,0,0,0,0,0,0,0,0,0,0,0,75,0,0,63,0,0,0,0,0,37,0,0,71,0,0,0,41,0,24,51,0,0,0,0,0,0,26,0,57,0,0,58,0,28,0,0,0,10,32,0,13,0|
0,0,75,20,69,55,59,0,0,0,0,0,0,0,0,0,0,0,0,0,0,0,0,47,32,0,56,8,0,0,0,79,0,0,50,2,0,57,0,64,81,0,18,0,0,0,24,25,0,0,0,0,0,0,0,0,0,65,0,0,0,62,0,0,0,0,0,0,31,0,0,4,0,0,0,70,0,0,0,40,0|
2,24,0,0,0,77,0,0,0,0,0,0,0,0,0,0,6,0,0,0,0,0,0,0,0,0,0,0,0,52,0,0,33,0,0,31,0,0,0,0,0,0,0,0,71,0,64,20,0,0,47,0,0,0,0,0,0,0,0,0,0,0,3,0,0,0,36,40,0,34,0,15,0,5,0,0,0,0,0,0,0|
0,0,63,0,0,0,0,0,0,53,60,0,0,78,0,34,3,67,0,58,59,0,0,31,0,46,0,49,0,0,0,23,42,0,4,0,66,0,9,0,36,41,26,0,0,0,0,0,65,64,0,6,0,0,0,21,0,0,12,7,0,0,13,0,61,0,0,0,19,0,0,0,0,0,0,54,0,0,0,57,0|
0,0,33,0,0,0,0,52,0,0,0,19,0,0,0,0,7,0,14,0,0,0,0,0,0,0,0,0,0,0,40,44,6,74,10,0,0,0,22,76,0,0,0,0,0,0,77,0,0,0,80,0,78,0,2,0,0,0,53,18,0,70,32,0,0,29,64,0,0,72,62,0,59,0,0,0,0,0,36,0,0|
8,0,0,0,0,80,0,0,6,0,0,54,0,0,0,0,0,0,2,0,0,0,63,0,24,0,62,57,0,0,0,0,0,58,0,0,0,0,73,0,13,64,0,0,0,31,0,74,0,0,0,0,0,0,0,0,0,46,0,42,0,0,0,0,0,0,0,25,66,0,0,0,0,19,29,0,0,0,0,32,0|
0,0,0,0,0,0,12,0,32,0,28,0,50,40,0,0,0,0,0,13,0,75,0,0,0,0,80,20,0,0,0,0,29,0,54,0,0,0,0,0,0,0,0,0,57,0,0,0,34,73,0,0,0,0,69,0,0,19,65,0,0,0,0,0,2,0,0,0,0,0,0,7,0,0,0,0,18,0,0,0,0|
22,0,0,0,0,0,0,29,26,31,0,0,0,61,72,0,0,42,0,0,66,32,57,0,6,0,43,0,0,0,0,0,11,0,0,35,0,0,46,0,0,0,0,0,0,0,0,0,0,0,0,51,0,53,0,0,80,0,0,0,73,0,28,0,0,0,0,37,0,0,0,0,0,0,65,0,70,0,0,10,40|
0,31,0,15,38,0,44,0,0,0,80,0,0,0,0,5,14,0,0,0,0,64,0,51,10,0,70,0,0,0,0,0,0,0,0,0,2,17,0,42,0,0,0,0,24,0,0,9,0,0,58,0,0,0,0,0,23,0,0,75,56,0,0,0,0,0,13,27,0,0,63,0,62,0,0,0,0,0,0,8,74|
0,0,0,13,0,0,0,0,0,0,0,0,0,48,0,22,0,0,0,34,0,0,0,0,0,0,9,71,63,0,0,0,0,62,0,0,0,16,30,4,0,0,0,0,0,0,39,0,42,0,0,0,0,0,0,0,0,0,0,0,66,24,0,0,50,0,0,80,0,0,0,0,56,68,0,33,0,0,0,0,0|
3,0,0,0,10,0,0,0,55,0,0,0,6,0,0,0,25,0,0,0,44,0,0,0,36,0,17,0,0,0,73,0,0,0,0,0,0,0,0,0,80,0,75,0,43,0,4,7,0,0,0,0,0,0,0,0,81,0,5,0,0,0,0,0,0,35,0,0,48,0,0,0,0,0,0,0,42,0,72,0,61|
0,21,0,2,70,71,58,48,0,0,0,0,0,0,10,0,79,47,0,0,0,45,0,77,0,0,0,0,0,51,0,64,0,75,65,0,59,0,0,0,0,0,37,0,67,0,35,0,0,0,17,29,0,0,0,0,62,0,40,0,60,0,0,0,0,15,56,0,0,31,44,0,0,0,0,0,0,0,0,0,0|
0,0,0,69,0,0,0,0,0,19,0,32,0,0,0,31,0,0,0,0,0,25,0,49,0,0,0,0,46,0,0,0,0,0,0,0,0,55,0,0,29,0,0,24,2,65,43,0,0,0,0,60,0,0,0,0,0,0,0,0,0,0,0,0,0,75,0,0,72,0,52,0,0,0,0,0,0,0,0,41,0|
0,0,0,77,0,25,0,27,0,0,12,0,0,0,0,0,80,13,31,0,76,0,0,0,67,5,0,0,0,0,0,30,32,0,0,0,9,43,60,62,0,78,0,0,0,0,0,0,0,0,0,26,21,0,0,72,0,0,0,28,0,17,0,0,38,0,0,81,51,63,0,0,0,0,0,0,0,0,0,0,0|
21,0,0,0,0,0,43,30,0,5,0,0,0,0,0,0,0,57,0,51,0,0,0,10,0,8,0,0,0,0,41,0,56,0,0,0,0,0,0,0,0,0,0,31,0,2,0,0,46,0,0,0,7,0,0,42,0,0,0,0,62,0,0,13,0,0,16,35,0,0,0,40,0,0,0,0,0,0,0,0,0|
0,0,0,0,0,0,47,5,0,28,30,0,0,0,0,0,0,0,69,23,0,15,0,55,0,72,0,0,0,0,78,0,65,44,0,0,63,0,0,0,0,0,0,0,64,0,16,0,0,45,0,0,0,0,0,0,0,34,0,0,0,0,52,21,0,0,0,0,59,0,12,10,0,0,0,0,0,0,0,0,0|
0,0,79,0,60,44,0,0,0,50,0,69,9,0,0,0,0,0,40,4,11,61,0,0,0,0,0,51,0,0,15,0,0,0,0,0,0,0,0,0,35,42,0,0,0,0,14,0,0,0,0,0,0,55,0,78,0,81,0,0,0,0,38,0,0,0,48,0,0,80,0,0,0,37,0,17,68,1,0,0,0|
11,0,0,68,0,33,8,0,0,0,0,0,43,47,0,0,0,0,0,0,0,46,0,0,75,0,0,58,0,0,0,0,0,52,72,48,0,0,61,0,40,0,0,0,70,0,0,0,20,0,0,0,0,0,56,0,0,31,37,13,0,0,55,0,0,18,0,49,0,0,0,0,0,0,19,0,78,0,81,14,0|
0,0,0,0,0,0,0,0,0,38,0,0,21,72,0,0,0,0,0,0,35,0,1,0,0,0,0,0,0,0,0,0,0,0,43,11,0,0,0,14,0,0,0,47,0,37,0,0,0,4,0,0,0,74,0,0,0,0,0,0,29,0,0,0,25,0,0,0,0,0,0,0,13,0,0,0,52,0,0,0,48|
0,0,0,0,0,34,0,0,9,0,0,0,35,0,58,0,0,73,13,74,0,0,60,0,48,0,0,0,0,0,39,0,0,0,0,0,54,0,0,6,0,0,38,0,12,51,66,0,41,0,0,52,0,0,70,0,0,0,0,0,0,0,59,0,0,0,0,0,0,0,27,0,0,56,0,4,0,0,0,0,0|
41,0,0,52,0,0,0,0,0,63,0,56,0,70,0,0,11,0,0,0,0,0,0,0,16,0,0,0,21,60,0,0,0,0,0,0,44,48,0,0,0,37,0,0,0,0,6,0,0,0,0,0,0,5,49,0,0,0,0,0,0,0,1,0,0,0,0,68,0,0,0,69,0,0,34,0,0,67,0,73,76|
0,0,0,0,0,0,30,0,0,0,59,0,72,0,0,0,0,0,0,0,0,0,53,0,0,44,41,26,0,0,7,0,0,0,0,0,0,0,0,38,0,0,36,0,0,0,0,0,0,70,0,0,28,0,66,0,0,14,21,0,0,18,39,0,33,0,0,0,0,0,0,0,0,0,0,0,0,37,0,0,62|
0,77,0,0,48,54,6,0,15,0,0,0,0,9,0,0,0,7,35,0,49,0,0,0,0,0,0,0,0,11,8,0,38,0,40,0,0,0,0,0,0,0,0,0,0,0,0,0,72,0,0,78,0,0,0,73,0,0,24,0,0,19,0,0,0,0,34,26,0,29,25,0,0,0,0,0,0,65,41,0,0|
13,0,0,0,0,0,0,17,0,80,0,81,0,0,0,60,0,0,0,0,6,0,40,0,0,0,0,0,0,0,0,73,0,24,0,22,0,71,66,0,0,0,0,8,5,0,55,0,0,2,56,0,44,48,0,0,26,0,0,45,0,9,72,59,0,0,79,0,0,47,10,0,0,0,0,0,0,0,0,0,3|
0,44,5,0,0,0,0,60,81,0,0,30,25,0,0,0,0,0,0,0,21,50,0,68,0,0,0,0,33,28,0,0,0,0,0,34,51,0,67,0,2,0,0,0,0,7,19,12,73,0,26,54,69,0,0,0,0,0,0,0,0,0,0,0,0,0,0,0,24,0,0,0,0,0,0,72,0,0,42,0,0|
0,34,0,0,0,0,41,28,78,0,79,0,62,0,51,0,29,0,0,0,0,0,0,0,0,0,55,0,0,64,0,67,44,0,0,0,19,0,0,0,43,14,47,0,0,0,23,32,17,77,0,22,0,0,0,0,0,0,52,6,0,0,27,0,0,0,0,0,13,0,0,0,0,9,0,0,0,0,0,0,0|
0,0,0,0,0,0,0,0,24,0,0,28,67,0,0,0,0,78,72,1,17,0,0,48,14,0,0,0,70,0,0,0,0,65,0,37,45,0,18,0,69,0,0,0,77,0,0,0,0,0,27,16,0,58,0,0,0,64,0,0,22,0,0,0,0,55,71,0,0,30,61,0,39,0,44,79,0,0,54,0,0|
9,0,0,35,0,0,0,4,0,0,68,0,0,0,17,0,0,0,0,33,36,39,34,0,0,0,54,0,0,0,0,0,80,0,0,0,0,0,0,0,10,0,30,0,0,29,0,0,64,21,0,14,0,13,7,0,0,12,0,0,0,0,0,0,75,0,0,0,0,0,0,0,0,0,0,0,0,70,18,63,0|
49,56,0,19,0,0,0,0,0,0,0,0,0,0,0,64,35,0,0,0,31,0,0,32,62,0,77,47,66,63,0,0,0,0,0,0,34,0,39,0,50,0,7,0,0,0,0,0,0,0,0,0,0,4,0,0,76,0,79,0,0,0,0,51,14,0,0,0,0,81,40,37,0,0,0,0,0,29,0,0,24|
47,0,0,0,0,0,0,14,0,56,45,0,18,37,0,0,48,65,0,22,0,0,0,0,51,0,0,0,0,17,0,60,0,0,0,0,79,0,62,74,0,25,0,0,0,0,0,0,10,0,0,0,0,0,0,0,57,0,20,1,0,0,41,0,76,0,0,21,0,0,0,53,0,40,0,61,59,77,0,23,38|];